23040
1 1 1 0 1 1 1 0 1 1 1 1 1 1 0 0 1 1 0 1 1 1 1 1 1 1 0 1 1 1 
27 19 21 27 2 12 21 27 22 28 4 28 13 1 28 11 1 20 22 0 27 16 5 24 10 27 27 19 29 2 19 19 4 16 27 6 20 8 24 16 25 9 6 4 8 19 13 21 19 20 24 16 24 16 8 6 11 9 22 25 29 0 25 8 13 11 5 17 28 25 25 12 19 9 23 23 20 23 8 16 10 0 9 25 29 13 6 5 27 25 28 6 25 25 2 13 11 6 0 28 28 21 25 25 4 0 4 24 22 13 19 4 27 12 12 8 28 25 17 8 9 11 17 19 9 16 2 11 19 17 28 24 11 20 23 9 1 13 28 10 12 22 11 11 25 5 24 21 27 25 24 17 23 0 8 11 2 16 13 13 13 27 10 24 5 27 5 4 1 21 1 20 19 10 4 2 0 10 29 10 5 21 2 19 12 8 28 23 0 21 2 21 6 4 25 12 25 21 10 19 
